30605
0,127,143,242,271,315,335,531,783,974,1081,1093,1100,1127,1219,1329,1344,1379,1396,1407,1664,2013,2517,2663,2690,2721,2800,2809,2914,3038,3071,3180,3202,3428,3477,3536,3607,3714,3784,3836,3859,3886,3959,4008,4018,4022,4081,4162,4185,4282,4328,4470,4569,4688,4794,4831,4918,4966
